83 1503
2 3 6 7 8 10 13 14 17 19 22 25 31 32 33 34 35 36 37 39 43 46 47 51 54 55 58 59 61 64 69 73 74 75 78 81 82
3 5 6 8 9 15 17 18 19 24 25 27 34 35 36 39 40 41 42 44 45 48 49 50 52 59 63 64 66 67 71 73 74 76 81 82
0 7 12 13 14 16 17 18 19 20 22 24 25 28 29 33 36 37 38 39 41 42 46 47 48 49 51 53 54 55 56 57 58 60 65 67 69 76 79 82
0 1 7 9 10 11 13 14 18 19 21 22 27 28 32 33 35 42 43 44 45 49 52 56 57 58 59 64 65 66 74 76 79 82
5 7 8 9 11 13 20 21 22 23 26 28 29 30 31 32 38 41 45 46 47 48 49 51 52 53 54 56 60 64 70 72 76 78 80 82
1 4 7 8 10 12 14 20 23 26 27 31 32 33 35 39 40 41 44 50 51 55 57 58 59 61 62 63 64 68 69 71 74 78 79
0 1 8 10 11 12 13 14 15 16 18 22 25 27 32 33 34 37 39 40 41 43 44 46 48 49 64 65 66 74 75
0 2 3 4 5 11 12 13 14 16 23 29 31 32 34 35 37 39 43 45 47 53 54 55 56 65 70 72 73 74 75 76 77 80 82
0 1 4 5 6 9 12 13 15 16 17 18 20 25 29 30 32 35 37 38 42 43 45 46 48 51 52 53 58 60 62 64 67 72 73 74 75 79 81 82
1 3 4 8 11 12 15 18 24 30 31 36 37 40 43 47 48 49 50 51 54 60 61 63 65 67 71 75 78 79 80
0 3 5 6 13 17 19 29 30 31 35 39 43 48 49 50 55 56 57 60 62 63 64 69 71 72 74 77 79 82
3 4 6 7 9 13 14 15 19 22 26 27 30 31 33 34 35 36 37 40 41 43 49 50 54 56 58 60 61 65 66 68 70 71 72 75 77 78 79
2 5 6 7 8 9 15 16 17 18 20 21 25 27 28 29 30 31 38 39 40 41 43 45 47 48 50 51 54 55 57 58 61 64 65 66 68 69 70 71 75 76 78
0 2 3 4 6 7 8 10 11 17 18 19 21 26 27 28 29 31 34 35 37 38 43 44 45 46 48 52 53 55 56 57 58 59 66 67 68 70 71 72 74 75 77 79 82
0 2 3 5 6 7 11 15 19 20 22 23 25 32 34 37 40 45 46 47 50 52 53 54 55 56 60 68 69 70 72 76 78 79 80 82
1 6 8 9 11 12 14 17 18 19 20 22 26 30 32 33 35 40 42 43 48 52 56 61 63 65 67 69 73 77 78 81 82
2 6 7 8 12 17 18 19 22 24 25 29 30 31 32 33 36 38 41 43 52 53 54 57 58 60 61 64 67 68 69 72 74 78 79
0 1 2 8 10 12 13 15 16 19 22 25 26 27 28 33 35 41 43 45 46 52 55 56 61 62 64 65 66 67 73 76 80 82
1 2 3 6 8 9 12 13 15 16 20 28 29 31 32 38 39 43 44 45 47 48 55 56 60 62 65 66 69 70 72 73 74 80
0 1 2 3 10 11 13 14 15 16 17 23 24 28 29 30 33 34 36 37 38 40 41 43 49 50 56 57 58 60 62 63 65 71 75 76 79
2 4 5 8 12 14 15 18 21 22 23 24 25 30 32 33 34 35 37 38 39 40 44 45 49 50 52 53 55 57 58 61 62 65 66 67 68 70 71 73 74 75 78 79 81 82
3 4 12 13 20 24 25 26 27 30 32 33 35 38 44 47 48 49 51 53 54 63 65 68 69 70 73 75 81 82
0 2 3 4 6 11 14 15 16 17 20 25 27 28 29 31 36 38 43 45 46 47 50 55 57 59 60 62 63 64 72 73 76
4 5 7 14 19 20 25 26 27 29 31 32 33 34 38 40 42 47 50 51 52 54 55 56 57 59 60 61 63 64 69 73 79 81 82
1 2 9 16 19 20 21 27 34 35 36 37 38 40 41 42 44 49 51 54 56 57 58 59 60 61 62 70 74 75 76 78 79 82
0 1 2 6 8 12 14 16 17 20 21 22 23 28 30 32 33 34 36 37 38 40 41 44 46 47 49 53 55 56 59 60 61 62 63 65 67 68 70 72 73 74 77 78 79 81 82
4 5 11 13 15 17 21 23 27 31 34 35 40 41 43 45 48 49 50 51 57 58 59 60 61 64 69 77 78 81
1 3 5 6 11 12 13 17 21 22 23 24 26 29 30 31 34 35 37 40 41 42 43 44 45 46 47 48 49 51 52 59 60 61 63 64 66 69 70 71 72 75 78 79 80 82
2 3 4 12 13 17 18 19 22 25 29 32 33 34 36 39 41 44 51 53 54 55 59 60 66 67 68 69 70 71 74 75 76 78
2 4 7 8 10 12 13 16 18 19 22 23 27 28 32 33 37 38 39 45 47 50 52 54 56 58 60 61 63 66 68 69 71 76 77 78 80 81
4 8 9 10 11 12 15 16 19 20 21 25 27 32 34 37 42 43 47 50 52 54 58 61 62 63 66 67 68 70 73 74 75 77 80 82
0 4 5 7 9 10 11 12 13 16 18 22 23 26 27 32 34 35 38 40 41 43 44 45 46 48 49 51 54 55 56 58 62 63 64 65 70 73 76 77
0 3 4 5 6 7 8 14 15 16 18 20 21 23 25 28 29 30 31 33 34 35 37 38 39 40 41 42 44 45 47 48 52 54 55 56 57 58 59 61 63 64 67 68 69 70 72 74 76 79
0 2 3 5 6 11 15 16 17 19 20 21 23 25 28 29 32 36 38 41 44 46 47 55 56 59 64 66 67 72 73 76 77 81
0 1 6 7 11 13 14 19 20 23 24 25 26 27 28 30 31 32 35 37 43 46 49 52 55 56 59 62 64 65 66 67 71 74 76 77 78 79 80 82
0 1 3 5 7 8 10 11 13 15 17 20 21 24 26 27 31 32 34 38 39 41 42 45 46 47 48 49 51 52 53 56 59 63 65 67 72 80
0 1 2 9 11 16 19 22 24 25 28 33 38 42 43 45 47 48 49 52 53 56 57 60 68 69 71 73 74 76 79 80 81 82
0 2 6 7 8 9 11 13 14 19 20 24 25 27 29 30 32 34 39 40 41 45 46 47 50 54 56 69 70 72 73 74 75 77 78 81
2 4 8 12 13 16 18 19 20 21 22 23 24 25 29 31 32 33 35 36 40 41 43 45 46 52 54 57 58 62 64 65 66 74 75 77 78
0 1 2 5 6 7 10 12 18 20 28 29 32 35 37 40 41 46 47 49 52 53 54 56 57 61 64 66 67 69 70 72 75 77 80 81
1 5 6 9 11 12 14 15 19 20 23 24 25 26 27 31 32 37 38 39 41 42 43 47 52 54 57 59 61 62 63 64 69 72 73 74 76 79 82
1 2 4 5 6 11 12 16 17 19 24 25 26 27 28 31 32 33 35 37 38 39 40 46 47 52 54 56 60 61 63 64 67 72 74 79 80 81
1 2 3 8 15 23 24 27 30 32 35 36 40 43 44 45 47 51 60 62 65 67 69 70 71 72 74 77 79 82
0 3 6 7 8 9 10 11 12 13 15 16 17 18 19 22 26 27 30 31 34 36 38 40 42 44 45 46 49 51 52 54 60 65 69 72 73 74 75 76 78 80
1 3 5 6 13 18 20 21 24 25 27 28 31 32 33 42 43 45 46 48 54 56 57 59 60 66 68 71 72 75 76 77 79 81 82
1 3 4 7 8 12 13 14 17 18 20 22 26 27 29 31 32 35 36 37 38 42 43 44 51 56 58 61 62 67 68 70 71 72 73 74 76 78 79 81
0 2 4 6 8 13 14 17 22 25 27 31 33 34 35 37 38 39 41 43 44 52 54 56 61 62 63 64 66 69 71 75 76 81
0 2 4 7 9 12 14 18 21 22 23 25 27 29 30 32 33 35 36 37 39 40 41 42 48 53 55 59 61 64 65 66 67 68 75 76 78 79
1 2 4 6 8 9 10 12 13 15 18 21 26 27 31 32 35 36 44 47 50 51 53 55 56 57 58 59 60 67 69 70 71 74 75 76 78 81
1 2 3 4 6 9 10 11 19 20 21 24 25 26 27 31 34 35 36 39 43 59 60 62 63 75 76 77 81
1 5 9 10 11 12 14 19 20 22 23 26 29 30 37 48 54 57 59 62 63 64 68 71 73 74 76 77 79 80 81
0 2 4 5 8 9 12 21 23 24 26 27 28 31 35 42 43 45 48 55 56 57 58 62 63 66 72 76 77 79
1 3 4 8 13 14 15 16 17 20 23 27 29 30 32 34 35 36 38 39 40 41 43 46 54 55 62 63 64 65 66 67 72 73 74 75 77 79 80 82
2 4 7 8 13 14 16 20 21 25 28 35 36 39 47 48 59 60 67 68 71 74 80 82
0 2 4 7 9 11 12 14 16 21 23 24 28 29 30 31 32 37 38 39 40 41 43 44 46 50 52 56 60 62 67 71 75
0 2 5 7 10 12 13 14 17 18 20 22 23 25 28 31 32 33 34 47 48 51 52 57 58 61 62 63 64 68 70 73 76 81 82
2 3 4 7 10 11 13 14 15 17 18 19 23 24 25 29 31 32 33 34 35 36 37 39 41 44 45 46 48 51 54 60 65 68 70 72 74 79 80 82
2 3 5 10 12 13 16 19 20 22 23 24 26 32 36 38 39 40 44 48 50 51 55 58 59 64 66 69 70 75 78 80 82
0 2 3 5 8 11 12 13 16 19 20 24 26 29 30 31 32 38 45 48 51 55 57 62 66 68 72 73 75 77 78 79 80 82
0 1 3 5 13 22 23 24 25 26 27 28 32 33 34 35 40 44 47 48 49 50 53 57 60 62 64 66 67 72 76 80 82
2 4 8 9 10 11 14 16 18 19 22 23 24 25 26 27 28 29 36 41 42 43 44 48 49 53 54 56 59 61 64 66 68 69 70 75 77 81 82
0 5 9 11 12 15 16 17 20 23 24 25 26 27 29 30 32 39 40 41 45 46 47 55 60 64 66 68 69 73 76 77 78 79 81
5 8 10 17 18 19 20 22 24 25 30 31 34 38 40 42 45 46 49 50 51 52 54 55 58 59 63 64 65 72 74 75 76 77 79 80 81
1 5 9 10 15 19 21 22 23 25 27 29 30 31 32 35 40 41 46 49 50 51 52 55 62 64 65 67 69 72 77 78 80
0 1 3 4 5 6 8 10 12 16 17 22 23 26 27 31 32 33 34 38 39 40 41 46 47 50 52 55 57 59 60 61 62 63 65 66 67 69 71 72 73 74 79 81
2 3 6 7 9 11 12 15 17 18 19 20 21 25 31 34 35 38 42 43 47 52 56 62 63 64 66 68 69 70 71 72 75 78 80 81
1 3 6 11 12 13 17 18 20 27 28 29 30 33 34 38 39 44 46 47 51 52 57 58 59 60 61 64 65 67 68 71 72 74 76 77 78 79
1 2 8 9 13 15 16 17 20 25 28 30 32 33 34 35 39 41 42 45 47 48 52 53 54 59 63 64 66 70 71 72 74 75 77 79 81 82
5 11 12 13 14 16 20 21 25 28 29 30 32 36 44 45 47 50 53 55 56 58 60 61 65 66 72 73 74 76 77 78 79 81 82
0 2 5 10 12 14 15 16 18 21 23 26 27 28 29 32 36 37 39 40 42 43 46 48 57 60 61 63 64 65 79 82
4 7 11 12 13 14 18 20 21 24 25 27 28 30 31 32 37 39 42 45 48 55 56 57 60 65 67 71 72 74 78
1 5 9 10 11 12 13 19 20 27 28 29 34 36 42 44 45 46 48 50 53 54 64 65 66 67 70 72 73 81 82
4 7 8 10 11 13 14 16 18 22 25 27 32 33 35 37 39 40 41 42 43 44 45 51 52 56 58 59 62 63 64 65 66 67 68 70 71 75
0 1 7 8 15 17 18 20 21 22 23 25 30 31 33 36 37 40 43 45 50 52 55 58 61 64 68 71 75 77 78 80 81
0 1 3 5 6 7 8 10 13 16 18 20 24 25 28 30 32 34 36 37 38 40 41 42 43 45 48 50 52 53 56 62 64 66 67 68 70 75 76 77 78 79 81
0 6 7 8 9 11 12 13 19 20 21 24 27 28 30 37 38 39 43 44 46 47 48 49 52 54 57 58 60 62 65 67 72 73 74 77 78 79 80 81 82
1 2 3 4 7 12 14 17 19 22 24 28 29 31 32 33 34 36 40 43 44 45 46 47 48 49 50 51 55 59 61 62 66 68 74 79
7 10 11 13 15 25 26 29 30 31 33 34 37 38 39 42 44 49 50 51 52 58 60 61 62 63 66 67 68 73 74 75 81 82
0 4 5 9 11 12 14 15 16 20 24 25 26 27 28 29 34 37 38 43 45 47 48 57 58 61 63 65 66 68 70 73 74 75 80
2 3 5 8 9 10 11 13 14 16 19 20 23 24 25 27 32 34 36 40 41 42 44 45 47 50 51 52 56 58 61 62 64 66 67 68 69 74 75 76 80 82
4 7 9 14 17 18 27 29 30 34 35 36 39 41 43 50 52 53 56 57 58 59 62 63 65 73 75 78 79 81
0 1 8 15 20 21 23 25 26 29 33 36 37 39 41 44 45 46 48 49 50 55 60 61 62 64 65 67 68 71 73 74 75 77 80
0 1 2 3 4 7 8 10 13 14 15 17 20 21 23 24 25 27 30 34 36 40 42 44 52 53 55 56 57 58 59 60 67 68 69 71 75 77 79
